NAME: ts11
COMMENT : 11 testing locations
TYPE: TSP
DIMENSION: 11
EDGE_WEIGHT_TYPE: EUC_2D
NODE_COORD_SECTION
1 0.0 10.5
2 1.1 2.5
3 3.9 7.1
4 4.6 9.1
5 11.9 2.3
6 17.8 19.20
7 31.6 30.17
8 16.4 20.3
9 1.2 7.8
10 9.1 8.7
11 3.8 9.91
